p cep 250 3813
1 2
1 3
1 4
1 5
1 6
1 7
1 8
1 9
1 10
1 12
1 13
1 14
1 15
1 16
1 17
1 18
1 19
1 20
1 21
1 23
1 24
1 25
1 126
1 127
1 128
1 129
1 131
1 132
1 133
1 134
1 135
1 136
1 137
1 138
1 139
1 140
1 141
1 142
1 143
1 144
1 145
1 146
1 147
1 148
1 149
1 150
1 201
1 202
1 203
1 205
1 207
1 208
1 209
1 210
1 211
1 212
1 213
1 214
1 215
1 216
1 220
1 221
1 225
1 226
1 227
1 228
1 229
1 230
1 231
1 233
1 234
1 235
1 236
1 237
1 238
1 239
1 240
1 241
1 242
1 243
1 245
1 246
1 247
1 248
1 249
1 250
2 3
2 4
2 5
2 6
2 7
2 10
2 11
2 12
2 13
2 15
2 16
2 17
2 18
2 19
2 20
2 22
2 23
2 24
2 25
2 127
2 130
2 131
2 132
2 133
2 136
2 139
2 140
2 143
2 145
2 148
2 150
2 201
2 207
2 209
2 217
2 223
3 4
3 6
3 7
3 10
3 12
3 13
3 15
3 18
3 20
3 23
3 24
3 132
3 133
3 139
3 140
3 150
3 244
4 5
4 6
4 7
4 8
4 9
4 10
4 11
4 12
4 13
4 14
4 15
4 16
4 17
4 18
4 19
4 20
4 21
4 22
4 23
4 24
4 25
4 126
4 127
4 128
4 129
4 130
4 131
4 132
4 133
4 134
4 135
4 136
4 137
4 138
4 139
4 140
4 141
4 142
4 143
4 144
4 145
4 146
4 147
4 148
4 149
4 150
4 201
4 202
4 203
4 204
4 206
4 209
4 210
4 211
4 212
4 214
4 215
4 216
4 217
4 221
4 223
4 224
4 233
4 235
4 239
4 244
4 246
4 249
5 7
5 8
5 9
5 12
5 14
5 15
5 16
5 17
5 18
5 19
5 21
5 23
5 24
5 25
5 126
5 127
5 128
5 129
5 131
5 132
5 134
5 135
5 137
5 138
5 140
5 141
5 143
5 144
5 145
5 146
5 147
5 148
5 149
5 150
5 183
5 208
5 210
5 211
5 214
5 215
5 221
5 237
5 243
5 245
6 7
6 10
6 13
6 18
6 20
6 22
6 23
6 24
6 130
6 132
6 133
6 136
6 139
6 143
6 145
6 149
6 204
6 209
6 218
6 222
6 246
7 8
7 9
7 10
7 11
7 12
7 13
7 14
7 15
7 16
7 17
7 18
7 19
7 20
7 21
7 22
7 23
7 24
7 25
7 126
7 127
7 128
7 129
7 130
7 131
7 132
7 133
7 134
7 135
7 136
7 137
7 138
7 139
7 140
7 141
7 142
7 143
7 144
7 145
7 146
7 148
7 149
7 150
7 201
7 204
7 210
7 211
7 212
7 214
7 215
7 216
7 217
7 219
7 222
7 233
8 9
8 10
8 12
8 14
8 15
8 16
8 17
8 18
8 19
8 23
8 24
8 25
8 126
8 127
8 128
8 129
8 131
8 132
8 134
8 135
8 137
8 138
8 140
8 141
8 142
8 143
8 144
8 145
8 146
8 147
8 148
8 149
8 150
8 208
8 209
8 210
8 211
8 214
8 215
8 216
8 220
8 221
8 225
8 226
8 227
8 228
8 229
8 230
8 233
8 234
8 235
8 237
8 238
8 239
8 243
8 245
8 246
8 248
8 249
8 250
9 12
9 14
9 15
9 16
9 17
9 18
9 21
9 23
9 24
9 25
9 126
9 128
9 129
9 131
9 132
9 134
9 135
9 137
9 138
9 140
9 141
9 143
9 144
9 145
9 147
9 148
9 149
9 150
9 202
9 205
9 209
9 210
9 211
9 213
9 214
9 215
9 216
9 220
9 221
9 226
9 228
9 230
9 233
9 234
9 235
9 237
9 238
9 239
9 243
9 245
9 246
10 11
10 12
10 13
10 15
10 16
10 17
10 18
10 19
10 20
10 21
10 22
10 23
10 24
10 25
10 126
10 127
10 128
10 129
10 130
10 131
10 132
10 133
10 136
10 137
10 138
10 139
10 140
10 141
10 142
10 143
10 144
10 145
10 146
10 147
10 148
10 149
10 150
10 203
10 209
10 212
10 214
10 216
10 217
10 224
10 226
10 231
10 233
10 235
10 237
10 238
10 239
10 241
10 242
10 244
10 246
10 247
10 249
11 12
11 16
11 18
11 20
11 21
11 22
11 23
11 24
11 25
11 130
11 132
11 133
11 140
11 142
11 143
11 145
11 149
11 150
11 201
11 212
11 217
12 13
12 14
12 15
12 16
12 17
12 18
12 19
12 21
12 23
12 24
12 25
12 126
12 127
12 128
12 129
12 130
12 131
12 132
12 134
12 135
12 136
12 137
12 138
12 139
12 140
12 141
12 142
12 143
12 144
12 145
12 146
12 147
12 148
12 149
12 150
12 202
12 205
12 207
12 208
12 209
12 210
12 211
12 212
12 213
12 214
12 215
12 216
12 220
12 221
12 223
12 225
12 226
12 227
12 228
12 229
12 230
12 231
12 232
12 233
12 234
12 235
12 237
12 238
12 239
12 240
12 241
12 242
12 243
12 245
12 246
12 247
12 248
12 249
12 250
13 15
13 17
13 18
13 19
13 20
13 21
13 22
13 23
13 24
13 25
13 127
13 129
13 130
13 132
13 133
13 136
13 139
13 140
13 142
13 143
13 144
13 145
13 148
13 149
13 150
13 204
13 205
13 215
13 218
13 219
13 222
13 235
13 246
14 15
14 16
14 17
14 18
14 19
14 21
14 24
14 25
14 126
14 127
14 128
14 129
14 130
14 131
14 132
14 134
14 135
14 137
14 138
14 140
14 141
14 142
14 143
14 144
14 145
14 146
14 147
14 148
14 149
14 150
14 211
14 214
14 234
14 237
14 240
14 243
14 245
14 247
14 249
15 16
15 17
15 18
15 19
15 20
15 21
15 23
15 24
15 25
15 126
15 127
15 128
15 129
15 130
15 131
15 132
15 133
15 134
15 135
15 136
15 137
15 138
15 139
15 140
15 141
15 142
15 143
15 144
15 145
15 146
15 147
15 148
15 149
15 150
15 202
15 203
15 205
15 208
15 209
15 210
15 211
15 213
15 214
15 215
15 216
15 220
15 221
15 225
15 226
15 227
15 228
15 229
15 230
15 231
15 233
15 234
15 235
15 237
15 238
15 239
15 240
15 241
15 242
15 243
15 245
15 246
15 247
15 248
15 249
15 250
16 17
16 18
16 19
16 20
16 21
16 22
16 23
16 24
16 25
16 126
16 127
16 128
16 129
16 131
16 132
16 133
16 134
16 135
16 136
16 137
16 138
16 140
16 141
16 142
16 143
16 144
16 145
16 146
16 147
16 148
16 149
16 150
16 201
16 202
16 205
16 207
16 208
16 209
16 210
16 211
16 212
16 213
16 214
16 215
16 216
16 217
16 220
16 221
16 222
16 223
16 225
16 226
16 227
16 228
16 233
16 234
16 235
16 237
16 238
16 239
16 241
16 242
16 243
16 245
16 247
16 249
17 18
17 19
17 21
17 23
17 24
17 25
17 126
17 127
17 128
17 129
17 131
17 132
17 134
17 135
17 136
17 137
17 138
17 140
17 141
17 142
17 143
17 144
17 146
17 147
17 148
17 149
17 150
17 205
17 208
17 209
17 210
17 211
17 213
17 214
17 215
17 226
17 228
17 233
17 235
17 236
17 237
17 238
17 239
17 242
17 245
17 246
17 247
17 249
17 250
18 19
18 20
18 21
18 23
18 24
18 25
18 126
18 127
18 128
18 129
18 130
18 131
18 132
18 133
18 134
18 135
18 136
18 137
18 138
18 139
18 140
18 141
18 142
18 143
18 144
18 145
18 146
18 147
18 148
18 149
18 150
18 202
18 205
18 209
18 210
18 211
18 213
18 214
18 215
18 216
18 218
18 222
18 235
18 237
18 238
18 239
18 241
18 246
18 249
19 20
19 23
19 24
19 25
19 126
19 128
19 129
19 131
19 132
19 133
19 137
19 140
19 141
19 142
19 144
19 145
19 146
19 148
19 149
19 150
19 210
19 211
20 22
20 23
20 24
20 25
20 129
20 130
20 132
20 133
20 136
20 142
20 143
20 145
20 150
20 201
20 204
20 222
21 23
21 24
21 25
21 126
21 127
21 129
21 130
21 131
21 132
21 135
21 137
21 138
21 139
21 140
21 141
21 142
21 143
21 144
21 145
21 146
21 147
21 149
21 150
21 214
21 215
21 216
21 235
21 237
21 239
21 241
21 246
21 247
21 249
22 23
22 133
22 212
23 24
23 25
23 126
23 127
23 129
23 130
23 131
23 132
23 133
23 135
23 136
23 137
23 139
23 140
23 141
23 142
23 143
23 144
23 145
23 149
23 150
23 205
23 207
23 209
23 210
23 211
23 214
23 215
23 217
23 219
23 223
24 25
24 126
24 127
24 128
24 129
24 131
24 132
24 133
24 134
24 135
24 136
24 137
24 138
24 139
24 140
24 141
24 142
24 143
24 144
24 145
24 146
24 147
24 148
24 149
24 150
24 210
24 211
24 212
24 214
24 216
24 223
24 231
24 233
24 235
24 237
24 241
24 245
24 249
25 126
25 127
25 128
25 129
25 130
25 131
25 132
25 133
25 134
25 135
25 136
25 137
25 138
25 139
25 140
25 141
25 142
25 143
25 144
25 145
25 146
25 147
25 148
25 149
25 150
25 202
25 208
25 210
25 211
25 212
25 213
25 214
25 215
25 216
25 223
25 228
25 231
25 232
25 233
25 234
25 235
25 237
25 238
25 239
25 241
25 242
25 243
25 245
26 32
26 33
26 35
26 37
26 42
26 44
26 49
26 50
26 92
27 29
27 33
27 34
27 35
27 37
27 38
27 39
27 41
27 42
27 43
27 44
27 49
27 50
28 29
28 31
28 35
28 45
28 46
28 47
28 49
29 31
29 33
29 35
29 37
29 44
29 45
29 46
29 47
29 48
29 49
29 50
31 33
31 35
31 37
31 44
31 45
31 46
31 47
31 49
32 33
32 35
32 37
32 44
32 48
32 50
33 34
33 35
33 36
33 37
33 38
33 39
33 41
33 42
33 43
33 44
33 45
33 48
33 49
33 50
34 35
34 36
34 37
34 38
34 39
34 41
34 42
34 43
34 44
34 48
34 49
34 50
35 36
35 37
35 38
35 39
35 41
35 42
35 43
35 44
35 45
35 46
35 47
35 48
35 49
35 50
35 92
36 37
36 38
36 41
36 42
36 43
36 44
36 49
36 50
37 38
37 39
37 41
37 42
37 43
37 44
37 45
37 48
37 49
37 50
38 39
38 41
38 42
38 43
38 44
38 49
38 50
39 41
39 42
39 43
39 44
39 48
39 49
40 47
40 48
41 42
41 43
41 44
41 49
42 43
42 44
42 49
42 50
43 44
43 49
44 45
44 47
44 48
44 49
44 50
44 93
45 46
45 47
45 48
45 49
45 50
46 47
46 49
47 48
47 49
48 49
48 50
49 50
51 52
51 53
51 54
51 55
51 56
51 57
51 58
51 59
51 60
51 62
51 63
51 64
51 65
51 66
51 68
51 69
51 70
51 71
51 72
51 73
51 75
52 53
52 54
52 55
52 56
52 57
52 58
52 59
52 60
52 61
52 62
52 63
52 64
52 65
52 66
52 67
52 68
52 69
52 70
52 71
52 72
52 73
52 74
52 75
53 54
53 55
53 56
53 57
53 58
53 59
53 60
53 62
53 63
53 64
53 65
53 66
53 68
53 69
53 70
53 71
53 72
53 73
53 75
54 55
54 57
54 58
54 59
54 60
54 61
54 62
54 63
54 64
54 65
54 66
54 67
54 68
54 69
54 70
54 71
54 72
54 73
54 74
54 75
55 56
55 57
55 58
55 59
55 60
55 62
55 63
55 64
55 65
55 66
55 68
55 69
55 70
55 71
55 72
55 73
55 75
56 57
56 60
56 62
56 64
56 65
56 66
56 69
56 70
56 72
57 58
57 59
57 60
57 61
57 62
57 63
57 64
57 65
57 66
57 67
57 68
57 69
57 70
57 71
57 72
57 73
57 74
57 75
58 59
58 60
58 61
58 62
58 63
58 64
58 65
58 66
58 67
58 68
58 69
58 70
58 71
58 72
58 73
58 74
58 75
59 60
59 61
59 62
59 63
59 64
59 65
59 66
59 67
59 68
59 69
59 70
59 71
59 72
59 73
59 74
59 75
60 61
60 62
60 63
60 64
60 65
60 66
60 67
60 68
60 69
60 70
60 71
60 72
60 73
60 74
60 75
61 62
61 63
61 64
61 65
61 66
61 67
61 68
61 69
61 70
61 71
61 72
61 73
61 74
61 75
62 63
62 64
62 65
62 66
62 67
62 68
62 69
62 70
62 71
62 72
62 73
62 74
62 75
63 64
63 65
63 66
63 67
63 68
63 69
63 70
63 71
63 72
63 73
63 74
63 75
64 65
64 66
64 67
64 68
64 69
64 70
64 71
64 72
64 73
64 74
64 75
65 66
65 67
65 68
65 69
65 70
65 71
65 72
65 73
65 74
65 75
66 68
66 69
66 70
66 71
66 72
66 73
66 74
66 75
67 69
67 70
67 71
67 72
67 73
67 74
67 75
68 69
68 70
68 71
68 72
68 73
68 74
68 75
69 70
69 71
69 72
69 73
69 74
69 75
69 165
70 71
70 72
70 73
70 74
70 75
71 72
71 73
71 74
71 75
71 108
71 109
71 112
71 114
71 116
71 117
71 118
71 123
71 125
72 73
72 74
72 75
72 185
73 74
73 75
73 108
73 109
73 112
73 114
73 116
73 117
73 118
73 123
73 125
74 75
74 108
74 109
74 112
74 114
74 116
74 117
74 118
74 119
74 123
74 125
76 78
76 79
76 80
76 81
76 82
76 84
76 85
76 86
76 88
76 89
76 90
76 91
76 92
76 93
76 95
76 96
76 97
76 98
76 99
76 100
77 81
77 87
77 97
78 79
78 81
78 82
78 86
78 87
78 94
78 96
78 97
78 98
79 80
79 81
79 82
79 84
79 85
79 86
79 87
79 88
79 89
79 90
79 91
79 92
79 93
79 95
79 96
79 97
79 98
79 99
79 100
80 81
80 82
80 84
80 85
80 86
80 88
80 89
80 90
80 91
80 92
80 93
80 95
80 97
80 98
80 99
80 100
81 84
81 86
81 87
81 89
81 95
81 96
81 97
81 98
81 100
82 84
82 85
82 88
82 89
82 90
82 91
82 92
82 93
82 95
82 97
82 98
82 99
82 100
84 85
84 86
84 88
84 89
84 90
84 91
84 92
84 93
84 95
84 97
84 98
84 99
84 100
85 88
85 89
85 90
85 91
85 92
85 93
85 95
86 87
86 88
86 96
86 97
86 98
86 100
87 94
87 96
87 97
88 89
88 90
88 91
88 92
88 93
88 95
88 97
88 98
88 99
88 100
89 90
89 91
89 92
89 93
89 95
89 98
89 99
90 91
90 93
90 95
90 97
90 98
90 99
90 100
90 188
91 92
91 93
91 95
91 98
91 99
92 93
92 95
92 98
93 95
93 98
93 99
94 96
95 97
95 98
96 97
96 98
96 100
97 98
97 100
97 225
98 99
98 100
99 100
101 102
101 105
101 107
101 108
101 109
101 111
101 112
101 113
101 114
101 115
101 116
101 117
101 118
101 119
101 120
101 121
101 123
101 124
101 125
101 167
101 169
102 105
102 107
102 108
102 109
102 111
102 112
102 113
102 114
102 115
102 116
102 117
102 118
102 119
102 120
102 121
102 123
102 124
102 125
102 153
102 158
102 160
102 164
102 167
102 169
102 171
103 109
103 112
103 117
103 118
103 119
103 122
103 124
103 125
104 108
104 109
104 112
104 114
104 116
104 117
104 118
104 119
104 121
104 125
105 106
105 107
105 108
105 109
105 111
105 112
105 113
105 114
105 115
105 116
105 117
105 118
105 119
105 122
105 123
105 124
105 125
105 153
105 155
105 160
106 107
106 108
106 109
106 111
106 112
106 113
106 114
106 116
106 117
106 118
106 119
106 120
106 123
106 124
106 125
107 108
107 109
107 111
107 112
107 113
107 114
107 115
107 116
107 117
107 118
107 119
107 120
107 121
107 123
107 124
107 125
107 153
107 158
107 160
107 164
107 167
107 169
107 171
108 109
108 111
108 112
108 113
108 114
108 115
108 116
108 117
108 118
108 119
108 120
108 121
108 123
108 124
108 125
108 153
108 158
108 160
108 164
109 111
109 112
109 113
109 114
109 115
109 116
109 117
109 118
109 119
109 120
109 121
109 122
109 123
109 124
109 125
109 153
109 158
109 160
109 164
111 112
111 113
111 114
111 115
111 116
111 117
111 118
111 119
111 120
111 121
111 123
111 124
111 125
111 153
111 158
111 160
111 164
112 113
112 114
112 115
112 116
112 117
112 118
112 119
112 120
112 121
112 122
112 123
112 124
112 125
112 153
112 158
112 160
112 164
113 114
113 115
113 116
113 117
113 118
113 119
113 120
113 121
113 123
113 124
113 125
113 166
114 115
114 116
114 117
114 118
114 119
114 120
114 121
114 123
114 124
114 125
115 116
115 117
115 118
115 119
115 120
115 121
115 123
115 124
115 125
115 153
115 158
115 160
115 164
115 167
115 169
115 171
116 117
116 118
116 119
116 120
116 121
116 123
116 124
116 125
116 153
116 158
116 160
116 164
116 167
116 169
116 171
117 118
117 119
117 120
117 121
117 122
117 123
117 124
117 125
117 153
117 158
117 160
117 164
117 166
118 119
118 120
118 121
118 123
118 124
118 125
118 153
118 158
118 160
118 164
118 166
119 120
119 121
119 122
119 123
119 124
119 125
120 121
120 123
120 124
120 125
121 123
121 124
121 125
121 153
121 158
121 160
121 163
121 164
121 167
121 169
121 171
123 124
123 125
123 169
123 171
124 125
124 158
124 166
125 153
125 158
125 160
125 164
126 127
126 128
126 129
126 130
126 131
126 132
126 133
126 134
126 135
126 136
126 137
126 138
126 139
126 140
126 141
126 142
126 143
126 144
126 145
126 146
126 147
126 148
126 149
126 150
126 202
126 209
126 210
126 211
126 213
126 214
126 215
126 221
126 226
126 227
126 228
126 230
126 231
126 233
126 234
126 235
126 237
126 238
126 239
126 241
126 242
126 243
126 245
126 246
126 247
126 248
126 249
126 250
127 128
127 129
127 131
127 132
127 133
127 134
127 135
127 136
127 137
127 138
127 139
127 140
127 141
127 142
127 143
127 144
127 145
127 146
127 147
127 148
127 149
127 150
127 205
127 207
127 209
127 215
127 218
127 230
127 231
127 235
127 237
127 239
127 243
127 245
127 246
127 247
127 249
128 129
128 131
128 132
128 134
128 135
128 136
128 137
128 138
128 140
128 141
128 142
128 143
128 144
128 145
128 146
128 147
128 148
128 149
128 150
128 208
128 211
128 214
128 226
128 227
128 228
128 234
128 237
128 239
128 240
128 242
128 243
128 245
128 247
128 248
129 130
129 131
129 132
129 133
129 134
129 135
129 136
129 137
129 138
129 139
129 140
129 141
129 142
129 143
129 144
129 145
129 146
129 147
129 148
129 149
129 150
129 203
129 209
129 210
129 214
129 226
129 227
129 231
129 232
129 234
129 235
129 236
129 237
129 238
129 239
129 242
129 245
129 246
129 247
129 250
130 131
130 132
130 133
130 134
130 136
130 137
130 138
130 139
130 140
130 142
130 143
130 144
130 145
130 146
130 149
130 150
130 202
130 203
130 204
130 207
130 209
130 210
130 212
130 219
131 132
131 133
131 134
131 135
131 136
131 137
131 138
131 139
131 140
131 141
131 142
131 143
131 144
131 145
131 146
131 147
131 148
131 149
131 150
131 209
131 210
131 211
131 213
131 214
131 215
131 216
131 221
131 225
131 226
131 227
131 228
131 229
131 230
131 231
131 232
131 233
131 234
131 235
131 237
131 238
131 239
131 240
131 241
131 242
131 243
131 245
131 246
131 247
131 248
131 249
131 250
132 133
132 134
132 135
132 136
132 137
132 138
132 139
132 140
132 141
132 142
132 143
132 144
132 145
132 146
132 147
132 148
132 149
132 150
132 202
132 207
132 210
132 211
132 212
132 213
132 214
132 215
132 216
132 219
132 223
132 226
132 227
132 228
132 230
132 231
132 232
132 233
132 234
132 235
132 237
132 238
132 239
132 240
132 241
132 242
132 243
132 244
132 245
132 246
132 247
132 248
132 249
132 250
133 134
133 135
133 136
133 137
133 139
133 140
133 141
133 142
133 143
133 144
133 145
133 146
133 147
133 149
133 150
133 201
133 204
133 209
133 217
133 231
133 232
133 237
133 250
134 135
134 136
134 137
134 138
134 139
134 140
134 141
134 142
134 143
134 144
134 145
134 146
134 147
134 148
134 149
134 150
134 208
134 209
134 210
134 211
134 214
134 221
134 226
134 227
134 228
134 229
134 230
134 231
134 232
134 233
134 234
134 235
134 237
134 238
134 239
134 240
134 241
134 242
134 243
134 245
134 246
134 247
134 248
134 249
134 250
135 137
135 138
135 140
135 141
135 142
135 143
135 144
135 145
135 146
135 147
135 148
135 149
135 150
135 208
135 210
135 211
135 213
135 214
135 215
135 216
135 220
135 221
135 223
135 225
135 226
135 228
135 230
135 233
135 234
135 237
135 239
135 240
135 241
135 243
135 245
135 250
136 137
136 138
136 139
136 140
136 141
136 142
136 143
136 144
136 145
136 146
136 147
136 148
136 149
136 150
136 226
136 227
136 228
136 231
136 232
136 235
136 236
136 237
136 238
136 242
136 246
136 250
137 138
137 139
137 140
137 141
137 142
137 143
137 144
137 145
137 146
137 147
137 148
137 149
137 150
137 208
137 209
137 210
137 211
137 213
137 214
137 215
137 216
137 220
137 221
137 225
137 226
137 227
137 228
137 229
137 230
137 231
137 233
137 234
137 235
137 237
137 238
137 239
137 240
137 241
137 242
137 243
137 245
137 246
137 247
137 248
137 249
137 250
138 139
138 140
138 141
138 142
138 143
138 144
138 145
138 146
138 147
138 148
138 149
138 150
138 210
138 211
138 213
138 214
138 220
138 225
138 226
138 227
138 228
138 229
138 230
138 233
138 234
138 237
138 238
138 239
138 243
138 245
138 248
138 250
139 140
139 141
139 142
139 143
139 144
139 145
139 146
139 147
139 148
139 149
139 150
139 231
139 232
139 235
139 237
139 244
139 246
139 247
139 250
140 141
140 142
140 143
140 144
140 145
140 146
140 147
140 148
140 149
140 150
140 202
140 205
140 208
140 209
140 210
140 211
140 213
140 214
140 215
140 216
140 220
140 221
140 225
140 226
140 227
140 228
140 229
140 230
140 231
140 232
140 233
140 234
140 235
140 236
140 237
140 238
140 239
140 240
140 241
140 242
140 243
140 245
140 246
140 247
140 248
140 249
140 250
141 142
141 143
141 144
141 145
141 146
141 147
141 148
141 149
141 150
141 210
141 211
141 214
141 215
141 225
141 226
141 227
141 228
141 229
141 230
141 231
141 233
141 234
141 235
141 237
141 238
141 239
141 240
141 241
141 242
141 243
141 245
141 246
141 247
141 248
141 249
141 250
142 143
142 144
142 145
142 146
142 147
142 148
142 149
142 150
142 210
142 214
142 215
142 216
142 226
142 227
142 229
142 230
142 231
142 232
142 233
142 234
142 235
142 237
142 238
142 239
142 240
142 241
142 242
142 243
142 244
142 245
142 246
142 247
142 249
142 250
143 144
143 145
143 146
143 147
143 148
143 149
143 150
143 207
143 215
143 226
143 227
143 228
143 230
143 231
143 232
143 233
143 234
143 235
143 237
143 238
143 239
143 240
143 241
143 242
143 243
143 245
143 246
143 247
143 248
143 249
143 250
144 145
144 146
144 147
144 148
144 149
144 150
144 205
144 209
144 210
144 211
144 214
144 215
144 226
144 228
144 230
144 231
144 233
144 234
144 235
144 237
144 238
144 239
144 240
144 241
144 242
144 243
144 245
144 246
144 247
144 248
144 249
145 146
145 147
145 148
145 149
145 150
145 202
145 203
145 204
145 209
145 210
145 227
145 231
145 232
145 237
145 238
145 242
146 147
146 148
146 149
146 150
146 211
146 223
146 227
146 231
146 232
146 234
146 235
146 237
146 238
146 239
146 241
146 242
146 243
146 245
146 246
146 247
146 248
146 249
147 148
147 149
147 150
147 210
147 211
147 214
147 220
147 225
147 226
147 227
147 228
147 229
147 230
147 231
147 232
147 233
147 234
147 236
147 237
147 238
147 239
147 241
147 242
147 243
147 245
147 247
147 248
147 249
147 250
148 149
148 150
148 208
148 210
148 211
148 214
148 215
148 225
148 226
148 227
148 228
148 230
148 231
148 234
148 235
148 237
148 238
148 239
148 240
148 241
148 242
148 243
148 245
148 246
148 247
148 248
148 249
148 250
149 150
149 209
149 216
149 227
149 230
149 231
149 233
149 234
149 235
149 237
149 238
149 239
149 240
149 241
149 242
149 243
149 245
149 246
149 247
149 249
150 201
150 202
150 207
150 208
150 209
150 210
150 211
150 212
150 214
150 215
150 216
150 217
150 221
150 223
150 226
150 227
150 228
150 230
150 231
150 232
150 233
150 234
150 235
150 237
150 238
150 239
150 241
150 242
150 243
150 244
150 245
150 246
150 247
150 248
150 249
150 250
151 152
151 153
151 154
151 155
151 156
151 157
151 158
151 159
151 160
151 161
151 162
151 163
151 164
151 165
151 168
151 172
151 173
151 175
152 153
152 154
152 155
152 156
152 157
152 158
152 159
152 160
152 161
152 163
152 164
152 165
152 166
152 168
152 171
152 172
152 173
152 174
152 175
153 154
153 155
153 157
153 158
153 159
153 160
153 161
153 163
153 164
153 165
153 166
153 167
153 168
153 169
153 170
153 171
153 172
153 174
154 155
154 156
154 158
154 160
154 161
154 163
154 164
154 165
154 166
154 171
154 172
154 174
155 156
155 157
155 158
155 159
155 160
155 161
155 163
155 164
155 165
155 166
155 167
155 168
155 169
155 170
155 171
155 172
155 173
155 174
156 157
156 158
156 162
156 168
156 173
156 175
157 158
157 159
157 160
157 162
157 164
157 165
157 166
157 168
157 173
157 174
157 175
158 159
158 160
158 161
158 163
158 164
158 165
158 166
158 167
158 168
158 169
158 170
158 171
158 172
158 174
159 160
159 161
159 162
159 163
159 164
159 165
159 168
159 172
159 173
159 175
160 161
160 163
160 164
160 165
160 166
160 167
160 168
160 169
160 170
160 171
160 172
160 174
161 163
161 164
161 165
161 168
161 171
161 172
161 173
161 174
162 165
162 168
162 172
162 173
162 174
162 175
163 164
163 165
163 166
163 167
163 168
163 169
163 170
163 171
163 172
163 173
163 174
164 165
164 166
164 167
164 168
164 169
164 170
164 171
164 172
164 174
165 166
165 167
165 168
165 169
165 170
165 171
165 172
165 173
165 174
165 175
166 167
166 169
166 171
166 172
166 173
166 174
167 169
167 171
167 172
168 172
168 173
168 174
168 175
169 171
169 174
170 171
171 172
171 174
172 173
172 174
173 174
173 175
176 177
176 178
176 179
176 180
176 181
176 182
176 183
176 184
176 185
176 186
176 187
176 188
176 189
176 190
176 191
176 193
176 194
176 195
176 196
176 197
176 198
176 199
176 225
177 178
177 179
177 180
177 181
177 182
177 183
177 184
177 185
177 186
177 187
177 188
177 189
177 190
177 191
177 193
177 194
177 195
177 196
177 197
177 198
177 199
177 200
178 179
178 180
178 181
178 182
178 183
178 184
178 185
178 186
178 187
178 188
178 189
178 190
178 191
178 192
178 193
178 194
178 195
178 196
178 197
178 198
178 199
178 200
179 180
179 181
179 182
179 183
179 184
179 185
179 186
179 187
179 188
179 189
179 190
179 191
179 192
179 194
179 195
179 196
179 197
179 198
179 199
180 181
180 182
180 183
180 185
180 186
180 187
180 188
180 189
180 190
180 191
180 192
180 193
180 194
180 195
180 196
180 197
180 198
180 199
181 182
181 183
181 185
181 186
181 187
181 188
181 189
181 190
181 191
181 192
181 193
181 194
181 196
181 197
181 198
181 199
182 183
182 187
182 188
182 190
182 193
182 194
182 195
182 196
182 197
182 198
182 199
183 185
183 186
183 187
183 188
183 189
183 190
183 191
183 192
183 194
183 195
183 196
183 197
183 198
183 199
184 187
184 194
184 196
184 200
185 186
185 187
185 188
185 189
185 190
185 191
185 192
185 197
185 198
185 199
186 187
186 188
186 189
186 190
186 192
186 194
186 197
186 198
186 199
187 188
187 189
187 190
187 191
187 192
187 193
187 194
187 195
187 196
187 197
187 198
187 199
188 189
188 190
188 191
188 192
188 194
188 195
188 196
188 197
188 198
188 199
189 190
189 191
189 192
189 197
189 198
189 199
190 191
190 192
190 194
190 195
190 196
190 197
190 198
190 199
191 192
191 194
191 196
191 197
191 198
191 199
192 197
192 198
192 199
193 194
193 195
193 196
193 197
193 199
194 195
194 196
194 197
194 198
194 199
194 200
195 196
195 198
195 199
195 200
196 197
196 198
196 199
196 200
197 198
197 199
198 199
201 202
201 204
201 206
201 207
201 209
201 212
201 214
201 215
201 216
201 217
201 219
201 221
201 222
201 223
202 203
202 204
202 207
202 208
202 209
202 210
202 211
202 212
202 213
202 214
202 215
202 216
202 217
202 219
202 221
202 223
202 224
203 204
203 209
203 210
203 211
203 212
203 213
203 214
203 215
203 216
203 219
203 221
203 223
203 224
204 209
204 210
204 212
204 215
204 219
204 222
204 223
205 207
205 208
205 209
205 210
205 211
205 213
205 214
205 215
205 216
205 218
205 219
205 220
205 225
206 207
206 209
206 217
206 218
206 219
206 221
206 222
206 223
207 208
207 209
207 210
207 211
207 212
207 213
207 214
207 215
207 216
207 217
207 218
207 219
207 223
207 225
207 232
208 209
208 210
208 211
208 212
208 213
208 214
208 215
208 217
208 220
208 221
208 223
208 225
209 210
209 211
209 212
209 213
209 214
209 215
209 216
209 217
209 219
209 220
209 221
209 223
209 224
209 225
209 230
209 232
209 235
209 236
209 237
209 238
209 246
209 247
209 250
210 211
210 212
210 213
210 214
210 215
210 216
210 217
210 219
210 220
210 221
210 222
210 223
210 224
210 225
210 228
210 230
210 233
210 237
210 238
210 239
210 249
211 212
211 213
211 214
211 215
211 216
211 220
211 221
211 223
211 225
212 214
212 215
212 216
212 217
212 219
212 221
212 222
212 223
212 224
213 214
213 215
213 216
213 219
213 220
213 221
213 224
213 225
213 228
213 233
213 239
213 246
214 215
214 216
214 217
214 220
214 221
214 223
214 224
214 225
214 226
214 227
214 229
214 230
214 234
214 237
214 239
214 243
214 245
214 248
214 250
215 216
215 217
215 218
215 219
215 220
215 221
215 222
215 223
215 224
215 225
215 239
216 221
216 222
216 223
216 224
216 225
217 218
217 219
217 221
217 222
217 223
217 224
218 219
218 222
219 222
219 224
219 225
220 221
220 225
220 234
221 223
221 224
221 225
221 239
222 223
225 234
225 245
225 248
226 227
226 228
226 229
226 230
226 231
226 232
226 233
226 234
226 235
226 236
226 237
226 238
226 239
226 240
226 241
226 242
226 243
226 244
226 245
226 246
226 247
226 248
226 249
226 250
227 228
227 229
227 230
227 231
227 232
227 233
227 234
227 235
227 236
227 237
227 238
227 239
227 240
227 241
227 242
227 243
227 245
227 246
227 247
227 248
227 249
227 250
228 229
228 230
228 231
228 232
228 233
228 234
228 235
228 237
228 238
228 239
228 240
228 241
228 242
228 243
228 244
228 245
228 246
228 247
228 248
228 249
228 250
229 230
229 231
229 232
229 233
229 234
229 235
229 236
229 237
229 238
229 239
229 241
229 242
229 243
229 245
229 246
229 247
229 248
229 249
229 250
230 231
230 232
230 233
230 234
230 235
230 236
230 237
230 238
230 239
230 240
230 241
230 242
230 243
230 245
230 246
230 247
230 248
230 249
230 250
231 232
231 233
231 234
231 235
231 236
231 237
231 238
231 239
231 240
231 241
231 242
231 243
231 244
231 245
231 246
231 247
231 248
231 249
231 250
232 233
232 234
232 235
232 236
232 237
232 238
232 239
232 241
232 242
232 243
232 245
232 246
232 247
232 250
233 234
233 235
233 237
233 238
233 239
233 240
233 241
233 242
233 243
233 245
233 246
233 247
233 248
233 249
233 250
234 235
234 236
234 237
234 238
234 239
234 240
234 241
234 242
234 243
234 245
234 246
234 247
234 248
234 249
234 250
235 236
235 237
235 238
235 239
235 240
235 241
235 242
235 243
235 244
235 245
235 246
235 247
235 248
235 249
235 250
236 237
236 238
236 239
236 242
236 245
236 246
236 247
236 249
236 250
237 238
237 239
237 240
237 241
237 242
237 243
237 244
237 245
237 246
237 247
237 248
237 249
237 250
238 239
238 240
238 241
238 242
238 243
238 244
238 245
238 246
238 247
238 248
238 249
238 250
239 240
239 241
239 242
239 243
239 244
239 245
239 246
239 247
239 248
239 249
239 250
240 241
240 242
240 243
240 245
240 246
240 247
240 248
240 249
240 250
241 242
241 243
241 244
241 245
241 246
241 247
241 248
241 249
241 250
242 243
242 244
242 245
242 246
242 247
242 248
242 249
242 250
243 245
243 246
243 247
243 248
243 249
243 250
244 246
244 247
244 249
245 246
245 247
245 248
245 249
245 250
246 247
246 248
246 249
246 250
247 248
247 249
247 250
248 249
248 250
249 250
